198 20936
1 40 41 42 43 44 55 56 60 67 59 68 72 87 84 73 70 83 88 82 74 75 65 81 76 77 78 80 91 104 116 117 121 123 138 140 149 150 151 163 164 165 166 192 193 186 187 185 179 194 178 180 184 188 191 189 183 181 177 175 174 173 176 182 171 128 127 170 169 108 109 110 111 107 106 112 113 114 105 92 79 64 49 50 51 47 39 52 46 53 62 66 61 54 45 38 37 31 32 36 33 28 23 22 27 26 25 24 21 20 19 18 17 16 15 14 29 30 34 35 48 63 167 168 198 197 196 195 190 172 137 144 145 146 153 162 152 161 160 148 147 142 143 141 135 132 134 136 130 129 133 131 126 125 124 120 119 118 139 159 158 157 156 155 154 122 115 103 93 101 102 94 95 96 90 89 97 98 99 100 85 86 71 69 57 58 13 12 11 10 9 8 5 4 3 6 7 2 
